15
45
539
566
788
789
621
780
709
585
753
683
560
662
578
541
959
399	409
44	54
902	912
158	168
819	829
128	138
648	658
295	305
460	470
599	609
207	217
18	28
22	32
483	493
282	292
656	666
328	338
333	343
373	383
464	474
929	939
541	551
235	245
498	508
219	229
685	695
444	454
205	215
897	907
877	887
573	583
701	711
168	178
871	881
389	399
539	549
294	304
497	507
898	908
22	32
566	576
227	237
548	558
125	135
660	670
